c --- [ banner ] -------------------------------------------------------------
c 
c CaDiCaL Radically Simplified CDCL SAT Solver
c Copyright (c) 2016-2021 A. Biere, M. Fleury, N. Froleyks
c 
c Version 1.5.2 a5f15211db36c3956764e18194dd5bd63bf3b5e6
c g++ (GCC) 9.3.0 -Wall -Wextra -O3 -DNDEBUG
c Fri Oct 21 01:27:37 EDT 2022 Linux gra-login3 3.10.0-1160.66.1.el7.x86_64 x86_64
c 
c --- [ limit ] --------------------------------------------------------------
c 
c setting conflict limit to 200000 conflicts (due to '200000')
c 
c --- [ parsing input ] ------------------------------------------------------
c 
c reading DIMACS file from '33.cubes899.adj'
c opening file to read '33.cubes899.adj'
c found 'p cnf 6160 1595471' header
c parsed 1595471 clauses in 19.29 seconds process time
c closing file '33.cubes899.adj'
c after reading 1457566749 bytes 1390.0 MB
c 
c --- [ options ] ------------------------------------------------------------
c 
c all options are set to their default value
c 
c --- [ solving ] ------------------------------------------------------------
c 
c time measured in process time since initialization
c 
c  seconds    reductions  redundant   irredundant
c          MB     restarts       trail       variables
c            level   conflicts       glue         remaining
c 
c * 19.29 1366  0 0   0    0    0  0% 0 1595422 2418 39%
c { 20.02 1404  0 0   0    0    0  0% 0 1595422 2418 39%
c i 22.39 1469 396 0   8   53   50 26% 15 1595422 2417 39%
c i 22.39 1469 388 0   8   54   50 26% 15 1595422 2416 39%
c i 22.39 1469 381 0   9   55   50 26% 14 1595422 2415 39%
c i 22.39 1469 374 0   9   56   50 26% 14 1595422 2414 39%
c i 22.40 1469 357 0  10   59   52 26% 14 1595422 2407 39%
c i 22.75 1471 320 0  12   67   58 26% 14 1595422 2406 39%
c i 22.86 1472 294 0  13   74   64 26% 16 1595422 2405 39%
c i 23.46 1478 245 0  18   97   84 27% 21 1595422 2404 39%
c i 23.53 1479 242 0  19  100   85 27% 21 1595422 2395 39%
c i 24.22 1480 185 0  25  138  116 27% 20 1595422 2373 39%
c i 24.27 1480 173 0  25  150  127 27% 20 1595422 2372 39%
c i 25.10 1484 150 0  38  199  162 26% 24 1595422 2370 38%
c i 25.11 1484 149 0  38  202  164 26% 23 1595422 2369 38%
c i 25.58 1486 160 0  44  239  197 26% 29 1595422 2368 38%
c i 25.89 1486 156 0  49  263  217 26% 29 1595422 2367 38%
c - 30.34 1422 145 1  57  300  249 27% 30 217871 2367 38%
c i 30.60 1423 140 1  61  318  264 27% 30 217871 2366 38%
c i 30.78 1423 127 1  63  370  302 27% 28 217871 2365 38%
c 
c  seconds     reductions  redundant   irredundant
c          MB      restarts       trail       variables
c             level   conflicts       glue         remaining
c 
c i 30.79 1423 125 1  63  376  307 27% 28 217871 2364 38%
c i 30.80 1423 125 1  63  379  309 27% 28 217871 2363 38%
c i 30.80 1423 124 1  63  382  311 27% 28 217871 2362 38%
c i 30.80 1423 123 1  63  384  312 27% 28 217871 2361 38%
c i 30.81 1423 121 1  63  394  320 27% 28 217871 2360 38%
c i 30.83 1423 117 1  63  413  326 27% 27 217871 2359 38%
c i 30.92 1423 113 1  63  445  349 27% 28 217871 2358 38%
c i 31.47 1423 106 1  82  545  432 27% 29 217871 2357 38%
c i 31.53 1423 104 1  82  562  446 27% 29 217871 2356 38%
c i 31.55 1423 104 1  82  566  449 27% 29 217871 2355 38%
c i 31.55 1423 103 1  82  569  451 27% 29 217871 2354 38%
c i 31.56 1423 103 1  82  573  454 27% 29 217871 2353 38%
c i 31.57 1423 102 1  82  576  456 27% 29 217871 2352 38%
c i 31.57 1423 102 1  82  578  457 27% 29 217871 2351 38%
c i 31.57 1423 102 1  82  582  460 27% 29 217871 2350 38%
c i 31.59 1423 99 1  82  605  480 27% 29 217871 2349 38%
c i 31.61 1423 99 1  83  613  487 27% 29 217871 2348 38%
c i 31.79 1423 102 1  85  638  511 27% 29 217871 2347 38%
c i 32.08 1423 103 1  97  694  559 27% 31 217871 2346 38%
c i 32.26 1423 104 1 105  722  586 27% 32 217871 2345 38%
c 
c  seconds     reductions  redundant   irredundant
c          MB      restarts       trail       variables
c             level   conflicts       glue         remaining
c 
c i 32.44 1423 103 1 114  753  614 27% 31 217871 2344 38%
c i 32.63 1423 96 1 115  816  633 27% 30 217871 2343 38%
c i 32.69 1423 96 1 115  828  643 27% 30 217871 2342 38%
c i 32.74 1423 95 1 115  839  653 27% 30 217871 2341 38%
c i 32.78 1423 94 1 115  850  663 27% 30 217871 2340 38%
c i 32.79 1423 94 1 115  852  662 27% 30 217871 2339 38%
c i 32.79 1423 94 1 115  854  663 27% 30 217871 2338 38%
c i 32.80 1423 94 1 115  856  664 27% 30 217871 2337 38%
c i 32.81 1423 94 1 115  860  667 27% 30 217871 2336 38%
c i 32.82 1423 93 1 115  866  672 27% 30 217871 2335 38%
c i 33.12 1423 91 1 117  939  735 27% 30 217871 2334 38%
c i 33.22 1423 90 1 117  957  751 27% 30 217871 2333 38%
c i 33.24 1423 89 1 117  961  754 27% 30 217871 2332 38%
c } 33.38 1423 90 1 117 1000  782 27% 29 217871 2332 38%
c [ 33.38 1423  0 1 117 1000  782  0% 0 217871 2332 38%
c O 33.40 1423 93 1 117 1004  784 23% 10 217871 2332 38%
c i 33.45 1423 20 1 117 1024  790 21% 5 217871 2331 38%
c i 33.54 1423 22 1 117 1036  801 25% 10 217871 2330 38%
c i 33.55 1423 23 1 117 1041  805 26% 10 217871 2329 38%
c i 33.61 1423 25 1 117 1067  827 28% 14 217871 2328 38%
c 
c  seconds    reductions  redundant   irredundant
c          MB     restarts       trail       variables
c            level   conflicts       glue         remaining
c 
c i 33.61 1423 25 1 117 1070  828 28% 15 217871 2327 38%
c i 33.61 1423 25 1 117 1072  827 28% 15 217871 2326 38%
c i 33.61 1423 24 1 117 1073  827 28% 15 217871 2325 38%
c i 33.61 1423 24 1 117 1074  827 28% 14 217871 2324 38%
c i 33.62 1423 24 1 117 1076  828 28% 14 217871 2323 38%
c - 34.05 1505 26 2 117 1102  731 29% 18 217740 2323 38%
c i 34.12 1505 26 2 117 1123  743 29% 19 217740 2322 38%
c i 34.18 1505 27 2 117 1174  776 30% 21 217740 2321 38%
c i 34.21 1505 26 2 117 1219  797 30% 21 217740 2320 38%
c ] 34.22 1505 26 2 117 1244  812 31% 21 217740 2320 38%
c 1 34.22 1505 26 2 117 1244  812 31% 21 217740 2320 38%
c 
c --- [ writing output ] -----------------------------------------------------
c 
c writing simplified CNF to DIMACS file 'simp/33.cubes899.adj.simp1'
c * 34.22 1505 26 2 117 1244  812 31% 21 217740 2320 38%
c opening file to write 'simp/33.cubes899.adj.simp1'
c writing 'p cnf 6160 217731' header
c closing file 'simp/33.cubes899.adj.simp1'
c after writing 93169715 bytes 88.9 MB
c wrote 217731 clauses in 0.70 seconds process time
c 
c --- [ writing extension ] --------------------------------------------------
c 
c writing extension stack to 'simp/33.cubes899.adj.ext1'
c opening file to write 'simp/33.cubes899.adj.ext1'
c closing file 'simp/33.cubes899.adj.ext1'
c after writing 10304 bytes 0.0 MB
c wrote 696 witnesses in 0.00 seconds process time
c 
c --- [ result ] -------------------------------------------------------------
c 
s SATISFIABLE
c 
c --- [ run-time profiling ] -------------------------------------------------
c 
c process time taken by individual solving procedures
c (percentage relative to process time for solving)
c 
c        19.29  129.16% parse
c        14.93  100.00% search
c        13.36   89.48% unstable
c         0.84    5.64% stable
c         0.73    4.87% lucky
c         0.00    0.00% simplify
c   =================================
c        14.93   42.76% solve
c 
c last line shows process time for solving
c (percentage relative to total process time)
c 
c --- [ statistics ] ---------------------------------------------------------
c 
c chronological:               479        38.50 %  of conflicts
c conflicts:                  1244        83.30    per second
c decisions:                 22096      1479.64    per second
c fixed:                       696        11.30 %  of all variables
c learned:                    1216        97.75 %  per conflict
c learned_lits:             158719       100.00 %  learned literals
c minimized:                     0         0.00 %  learned literals
c shrunken:                  82038        51.69 %  learned literals
c minishrunken:              10318         6.50 %  learned literals
c propagations:             264790         0.02 M  per second
c reduced:                     108         8.68 %  per conflict
c rephased:                      1      1244.00    interval
c restarts:                    117        10.63    interval
c stabilizing:                   1        19.61 %  of conflicts
c subsumed:                    228         0.01 %  of all clauses
c 
c seconds are measured in process time for solving
c 
c --- [ resources ] ----------------------------------------------------------
c 
c total process time since initialization:        34.93    seconds
c total real time since initialization:           35.01    seconds
c maximum resident set size of process:         1505.43    MB
c 
c --- [ shutting down ] ------------------------------------------------------
c 
c exit 10
WARNING! DIMACS header mismatch: wrong number of variables.
============================[ Problem Statistics ]=============================
|                                                                             |
|  Number of variables:          6120                                         |
|  Number of clauses:          217731                                         |
|  Parse time:                   1.23 s                                       |
|  Simplification time:          0.02 s                                       |
|                                                                             |
============================[ Search Statistics ]====================================================
| Conflicts |          ORIGINAL         |          LEARNT          | Num Sols |      SUBGRAPHS      |
|           |    Vars  Clauses Literals |    Limit  Clauses Lit/Cl |          | Canonical Noncanon. |
=====================================================================================================
|       104 |    6023   217735 20490526 |     2000       99     58 |        0 |        24         4 |
|       352 |    6022   217833 20492335 |     2000      346     28 |        0 |       111       102 |
|       790 |    6022   218046 20495528 |     2000      784     20 |        0 |       207       315 |
|      1679 |    6021   218598 20504491 |     2000     1672     17 |        0 |       383       867 |
|      3823 |    6021   220236 20529156 |     3599     2822     14 |        0 |       792      2505 |
|      5686 |    6013   221340 20548502 |     5000     2878     14 |        0 |      1273      3609 |
|     10430 |    6012   224945 20609238 |     6300     5130     14 |        0 |      2328      7214 |
|     17580 |    5996   230387 20704100 |     8780     5349     21 |        0 |      3512     12656 |
|     27493 |    5989   237738 20827023 |    11199     5892     12 |        0 |      5091     20007 |
|     43522 |    5989   249923 21028374 |    13605    10127     14 |        0 |      8014     32192 |
|     57641 |    5985   258276 21160437 |    16003    10042     24 |        0 |      9447     40545 |
|     90082 |    5985   282068 21508955 |    19607    16689     15 |        0 |     13096     64337 |
|    125781 |    5985   304793 21831792 |    23210    21191     23 |        0 |     16533     87062 |
|    181914 |    5985   341341 22312551 |    28005    27319     23 |        0 |     21040    123734 |
=====================================================================================================
Number of solutions   : 0
Canonical subgraphs   : 21467          (70 /sec)
          order  3    : 1              (166667 /sec)
          order  4    : 1              (333333 /sec)
          order  5    : 1              (250000 /sec)
          order  6    : 1              (52632 /sec)
          order  7    : 2              (10471 /sec)
          order  8    : 6              (2621 /sec)
          order  9    : 17             (607 /sec)
          order 10    : 82             (240 /sec)
          order 11    : 535            (140 /sec)
          order 12    : 3884           (106 /sec)
          order 13    : 15586          (68 /sec)
          order 14    : 980            (49 /sec)
          order 15    : 267            (24 /sec)
          order 16    : 87             (17 /sec)
          order 17    : 16             (18 /sec)
          order 18    : 1              (27 /sec)
          order 19    : 0              (-nan /sec)
          order 20    : 0              (-nan /sec)
          order 21    : 0              (-nan /sec)
          order 22    : 0              (-nan /sec)
Noncanonical subgraphs: 129065         (571 /sec)
          order  3    : 0              (-nan /sec)
          order  4    : 0              (-nan /sec)
          order  5    : 0              (-nan /sec)
          order  6    : 0              (-nan /sec)
          order  7    : 0              (-nan /sec)
          order  8    : 0              (-nan /sec)
          order  9    : 0              (-nan /sec)
          order 10    : 0              (-nan /sec)
          order 11    : 0              (-nan /sec)
          order 12    : 0              (-nan /sec)
          order 13    : 39565          (1878 /sec)
          order 14    : 84498          (441 /sec)
          order 15    : 4515           (408 /sec)
          order 16    : 420            (221 /sec)
          order 17    : 67             (144 /sec)
          order 18    : 0              (-nan /sec)
          order 19    : 0              (-nan /sec)
          order 20    : 0              (-nan /sec)
          order 21    : 0              (-nan /sec)
Canonicity checking   : 308.122 s
Noncanonicity checking: 225.971 s
Total canonicity time : 534.093 s
database reductions   : 22
restarts              : 510
conflicts             : 193079         (328 /sec)
decisions             : 377509         (0.00 % random) (641 /sec)
propagations          : 24020759       (40818 /sec)
conflict literals     : 6292378        (55.22 % deleted)
actual reward         : 0.051945
Memory used           : 287.00 MB
CPU time              : 588.488 s

UNSATISFIABLE
